23
3 1 15 44 
3 25 56 12 
3 36 28 12 
3 54 21 53 
3 20 11 39 
2 52 49 
3 35 30 60 
3 23 26 48 
2 23 40 
2 4 37 
3 6 15 32 
3 20 11 59 
2 58 34 
2 2 45 
3 18 26 17 
3 46 14 57 
3 33 55 50 
2 3 27 
2 41 16 
3 55 47 51 
2 24 31 
2 43 38 
3 8 19 35 
